7 4 10 2 3 10 -1 10 0 9 8 -1 10 3 -1 
7 1 5 8 6 1 8 3 5 6 9 4 -1 7 -1 
6 6 10 1 2 1 5 0 2 0 1 0 4 5 -1 
8 5 2 7 9 10 3 5 10 5 2 7 0 1 -1 
3 7 2 9 4 4 9 5 6 7 6 6 8 0 -1 
5 4 9 3 10 6 5 4 1 -1 10 10 1 -1 -1 
3 4 6 7 1 6 6 10 8 3 9 1 4 3 -1 
10 5 10 7 6 2 1 3 6 5 2 6 7 10 -1 
10 4 2 -1 8 -1 9 2 8 10 4 -1 6 1 -1 
7 5 7 6 7 10 2 0 -1 1 8 7 3 7 -1 
8 5 10 6 5 8 0 -1 9 -1 7 -1 -1 1 -1 
8 9 3 4 10 4 1 9 6 1 7 3 4 1 -1 
0 2 7 1 7 3 4 -1 5 7 10 3 -1 3 -1 
9 6 9 10 0 2 6 0 0 9 1 3 2 7 -1 
2 5 7 9 4 10 8 9 9 6 9 5 3 4 -1 
